p cnf 10 50
-9 10 3 0
8 -9 -4 0
8 6 -5 0
-10 6 -5 0
-5 -4 1 0
3 -5 1 0
-7 2 3 0
-2 8 -9 0
6 -10 3 0
-3 -9 2 0
-7 9 -10 0
-5 -9 2 0
3 -4 -7 0
-4 2 -9 0
2 3 6 0
6 2 -10 0
-7 -2 9 0
3 2 -6 0
1 -7 5 0
-7 3 2 0
-10 2 6 0
2 -1 9 0
1 -10 -5 0
8 3 10 0
-10 6 -8 0
-2 -7 8 0
3 -5 -9 0
-3 7 1 0
2 6 -5 0
4 8 -7 0
7 2 1 0
1 2 -9 0
-7 -5 6 0
6 8 -5 0
-9 -4 -10 0
2 7 -6 0
-8 -9 7 0
-4 2 -9 0
3 -5 -9 0
3 2 5 0
5 2 4 0
3 2 -8 0
8 -4 9 0
1 -10 7 0
-7 -5 1 0
-10 5 -7 0
8 -4 2 0
-4 -9 6 0
3 2 1 0
3 2 5 0
%
0